133
100000
13516
27370
17106
19411
22442
31161
34300
17191
2500
10627
19544
15805
38487
6269
2450
32121
36733
14954
20586
1478
47398
5496
18662
28797
36460
2484
28845
2240
1794
38402
36125
12383
11768
5100
12124
11633
7500
25512
23283
32988
39999
40562
40205
44141
31775
4406
41027
43260
26069
31919
26092
11115
1768
20
3500
16237
31879
3777
40730
11687
13347
17477
22226
37268
1849
3786
6652
20732
15362
19246
27539
39433
16294
39014
45820
3452
13530
24549
21139
44330
21431
39670
25210
1411
30202
47583
14569
6015
30147
434
8540
34544
33655
49419
44744
27476
6287
25225
36431
33390
45908
2237
36471
2977
34798
10356
27234
8756
27874
17612
8918
18253
43849
17598
3071
34942
42705
17322
6133
27414
23021
16932
48163
32635
18031
26833
29087
18573
20618
27594
27784
15418
48242
